<number of tasks>
32

<cycle time>
1768

<task times>
1 458
2 276
3 520
4 1400
5 352
6 196
7 214
8 456
9 646
10 512
11 408
12 262
13 544
14 202
15 458
16 694
17 616
18 678
19 328
20 324
21 100
22 352
23 544
24 500
25 382
26 858
27 388
28 352
29 428
30 238
31 258
32 196

<precedence relations>
1,5
2,6
3,9
4,15
5,6
6,7
6,8
6,9
7,21
8,21
9,10
9,11
10,16
11,12
12,13
13,14
13,15
14,16
14,17
15,17
16,18
17,19
18,21
19,20
20,21
21,22
21,23
21,24
22,25
23,32
24,32
25,26
26,27
27,28
28,29
29,30
30,31
31,32

<setup times forward>
1,2:45
1,4:45
1,5:62
2,1:45
2,3:45
2,5:17
2,6:17
3,2:45
3,4:45
3,5:62
3,6:62
3,7:47
3,8:62
3,9:62
4,1:45
4,3:45
4,5:17
4,6:17
4,7:2
4,8:17
4,9:17
4,10:16
4,11:16
4,12:16
4,13:16
4,14:11
4,15:25
4,16:11
4,18:11
5,2:17
5,3:62
5,4:17
6,3:62
6,4:17
6,7:15
7,3:47
7,4:2
7,8:15
7,9:15
7,10:18
7,11:18
7,12:18
7,13:18
7,14:13
7,15:23
7,16:13
7,17:23
7,18:13
7,19:23
7,20:23
8,3:62
8,4:17
8,7:15
8,10:33
8,11:33
8,12:33
8,13:33
8,14:28
8,15:8
8,16:28
8,17:8
8,18:28
8,19:8
8,20:8
8,21:15
9,4:17
9,7:15
9,10:33
9,11:33
10,4:16
10,7:18
10,8:33
10,14:5
10,15:41
10,16:5
10,17:41
10,19:41
10,20:41
11,4:16
11,7:18
11,8:33
12,4:16
12,7:18
12,8:33
13,4:16
13,7:18
13,8:33
13,14:5
13,15:41
14,4:11
14,7:13
14,8:28
14,10:5
14,15:36
14,17:36
15,7:23
15,8:8
15,10:41
15,14:36
15,16:36
15,18:36
16,4:11
16,7:13
16,8:28
16,15:36
16,17:36
16,19:36
16,20:36
17,7:23
17,8:8
17,10:41
17,16:36
17,18:36
18,4:11
18,7:13
18,8:28
18,15:36
18,17:36
18,19:36
18,20:36
18,21:13
19,7:23
19,8:8
19,10:41
19,16:36
19,18:36
20,7:23
20,8:8
20,10:41
20,16:36
20,18:36
20,21:23
22,25:37
23,25:37
23,26:37
23,27:37
23,28:26
23,29:26
23,30:26
23,31:26
23,32:26
24,25:37
24,26:37
24,27:37
24,28:26
24,29:26
24,30:26
24,31:26
24,32:26
25,23:37
25,24:37
26,23:37
26,24:37
27,23:37
27,24:37
27,28:63
28,23:26
28,24:26
29,23:26
29,24:26
30,23:26
30,24:26
31,23:26
31,24:26

<setup times backward>
1,1:42
1,2:87
1,3:42
1,4:87
2,2:42
2,4:42
2,5:59
3,1:42
3,2:87
3,3:42
3,4:87
3,5:104
3,6:104
3,7:89
3,8:104
4,2:42
4,4:42
4,5:59
4,6:59
4,7:44
4,8:59
4,9:59
4,10:26
4,11:26
4,12:26
4,13:26
4,14:31
4,16:31
4,18:31
5,2:25
5,4:25
5,5:42
6,2:25
6,4:25
6,5:42
6,6:42
7,2:40
7,4:40
7,5:57
7,6:57
7,7:42
7,8:57
7,9:57
7,10:24
7,11:24
7,12:24
7,13:24
7,14:29
7,15:65
7,16:29
7,17:65
7,18:29
7,19:65
7,20:65
8,2:25
8,4:25
8,5:42
8,6:42
8,7:27
8,8:42
8,9:42
8,10:9
8,11:9
8,12:9
8,13:9
8,14:14
8,15:50
8,16:14
8,17:50
8,18:14
8,19:50
8,20:50
9,2:25
9,4:25
9,5:42
9,6:42
9,7:27
9,8:42
9,9:42
10,1:13
10,2:58
10,3:13
10,4:58
10,5:75
10,6:75
10,7:60
10,8:75
10,9:75
10,10:42
10,11:42
10,12:42
10,13:42
10,14:47
10,15:83
10,17:83
10,19:83
10,20:83
11,1:13
11,2:58
11,3:13
11,4:58
11,5:75
11,6:75
11,7:60
11,8:75
11,9:75
11,10:42
11,11:42
12,1:13
12,2:58
12,3:13
12,4:58
12,5:75
12,6:75
12,7:60
12,8:75
12,9:75
12,10:42
12,11:42
12,12:42
13,1:13
13,2:58
13,3:13
13,4:58
13,5:75
13,6:75
13,7:60
13,8:75
13,9:75
13,10:42
13,11:42
13,12:42
13,13:42
14,1:8
14,2:53
14,3:8
14,4:53
14,5:70
14,6:70
14,7:55
14,8:70
14,9:70
14,10:37
14,11:37
14,12:37
14,13:37
14,14:42
14,15:78
15,2:17
15,4:17
15,5:34
15,6:34
15,7:19
15,8:34
15,9:34
15,10:1
15,11:1
15,12:1
15,13:1
15,14:6
15,15:42
15,16:6
15,18:6
16,1:8
16,2:53
16,3:8
16,4:53
16,5:70
16,6:70
16,7:55
16,8:70
16,9:70
16,10:37
16,11:37
16,12:37
16,13:37
16,14:42
16,15:78
16,16:42
16,17:78
16,19:78
16,20:78
17,2:17
17,4:17
17,5:34
17,6:34
17,7:19
17,8:34
17,9:34
17,10:1
17,11:1
17,12:1
17,13:1
17,14:6
17,15:42
17,16:6
17,17:42
17,18:6
18,1:8
18,2:53
18,3:8
18,4:53
18,5:70
18,6:70
18,7:55
18,8:70
18,9:70
18,10:37
18,11:37
18,12:37
18,13:37
18,14:42
18,15:78
18,16:42
18,17:78
18,18:42
18,19:78
18,20:78
19,2:17
19,4:17
19,5:34
19,6:34
19,7:19
19,8:34
19,9:34
19,10:1
19,11:1
19,12:1
19,13:1
19,14:6
19,15:42
19,16:6
19,17:42
19,18:6
19,19:42
20,2:17
20,4:17
20,5:34
20,6:34
20,7:19
20,8:34
20,9:34
20,10:1
20,11:1
20,12:1
20,13:1
20,14:6
20,15:42
20,16:6
20,17:42
20,18:6
20,19:42
20,20:42
21,2:40
21,4:40
21,5:57
21,6:57
21,7:42
21,8:57
21,9:57
21,10:24
21,11:24
21,12:24
21,13:24
21,14:29
21,15:65
21,16:29
21,17:65
21,18:29
21,19:65
21,20:65
21,21:42
22,2:40
22,4:40
22,5:57
22,6:57
22,7:42
22,8:57
22,9:57
22,10:24
22,11:24
22,12:24
22,13:24
22,14:29
22,15:65
22,16:29
22,17:65
22,18:29
22,19:65
22,20:65
22,21:42
22,22:42
22,23:42
22,24:42
23,2:40
23,4:40
23,5:57
23,6:57
23,7:42
23,8:57
23,9:57
23,10:24
23,11:24
23,12:24
23,13:24
23,14:29
23,15:65
23,16:29
23,17:65
23,18:29
23,19:65
23,20:65
23,21:42
23,22:42
23,23:42
23,24:42
23,25:79
23,26:79
23,27:79
23,28:16
23,29:16
23,30:16
23,31:16
24,2:40
24,4:40
24,5:57
24,6:57
24,7:42
24,8:57
24,9:57
24,10:24
24,11:24
24,12:24
24,13:24
24,14:29
24,15:65
24,16:29
24,17:65
24,18:29
24,19:65
24,20:65
24,21:42
24,22:42
24,23:42
24,24:42
24,25:79
24,26:79
24,27:79
24,28:16
24,29:16
24,30:16
24,31:16
25,2:3
25,4:3
25,5:20
25,6:20
25,7:5
25,8:20
25,9:20
25,15:28
25,17:28
25,19:28
25,20:28
25,21:5
25,22:5
25,23:5
25,24:5
25,25:42
26,2:3
26,4:3
26,5:20
26,6:20
26,7:5
26,8:20
26,9:20
26,15:28
26,17:28
26,19:28
26,20:28
26,21:5
26,22:5
26,23:5
26,24:5
26,25:42
26,26:42
27,2:3
27,4:3
27,5:20
27,6:20
27,7:5
27,8:20
27,9:20
27,15:28
27,17:28
27,19:28
27,20:28
27,21:5
27,22:5
27,23:5
27,24:5
27,25:42
27,26:42
27,27:42
28,1:21
28,2:66
28,3:21
28,4:66
28,5:83
28,6:83
28,7:68
28,8:83
28,9:83
28,10:50
28,11:50
28,12:50
28,13:50
28,14:55
28,15:91
28,16:55
28,17:91
28,18:55
28,19:91
28,20:91
28,21:68
28,22:68
28,23:68
28,24:68
28,25:105
28,26:105
28,27:105
28,28:42
29,1:21
29,2:66
29,3:21
29,4:66
29,5:83
29,6:83
29,7:68
29,8:83
29,9:83
29,10:50
29,11:50
29,12:50
29,13:50
29,14:55
29,15:91
29,16:55
29,17:91
29,18:55
29,19:91
29,20:91
29,21:68
29,22:68
29,23:68
29,24:68
29,25:105
29,26:105
29,27:105
29,28:42
29,29:42
30,1:21
30,2:66
30,3:21
30,4:66
30,5:83
30,6:83
30,7:68
30,8:83
30,9:83
30,10:50
30,11:50
30,12:50
30,13:50
30,14:55
30,15:91
30,16:55
30,17:91
30,18:55
30,19:91
30,20:91
30,21:68
30,22:68
30,23:68
30,24:68
30,25:105
30,26:105
30,27:105
30,28:42
30,29:42
30,30:42
31,1:21
31,2:66
31,3:21
31,4:66
31,5:83
31,6:83
31,7:68
31,8:83
31,9:83
31,10:50
31,11:50
31,12:50
31,13:50
31,14:55
31,15:91
31,16:55
31,17:91
31,18:55
31,19:91
31,20:91
31,21:68
31,22:68
31,23:68
31,24:68
31,25:105
31,26:105
31,27:105
31,28:42
31,29:42
31,30:42
31,31:42
32,1:21
32,2:66
32,3:21
32,4:66
32,5:83
32,6:83
32,7:68
32,8:83
32,9:83
32,10:50
32,11:50
32,12:50
32,13:50
32,14:55
32,15:91
32,16:55
32,17:91
32,18:55
32,19:91
32,20:91
32,21:68
32,22:68
32,23:68
32,24:68
32,25:105
32,26:105
32,27:105
32,28:42
32,29:42
32,30:42
32,31:42
32,32:42

<end>

<optimal SALBP-1 value>
9


<rand seed>
467321153

